[2026-03-24T00:36:07.063Z] Pipeline "set_prova_set_prova_set_s000_g002" → 2026_03_24_00_36_06_set_prova_set_prova_set_s000_g002_max.sol
Set parameter WLSAccessID
Set parameter WLSSecret
Set parameter LicenseID to value 2792458
Set parameter LogFile to value "gurobi.log"
Using license file /root/gurobi.lic
Academic license 2792458 - for non-commercial use only - registered to an___@studenti.unipg.it

Gurobi Optimizer version 13.0.1 build v13.0.1rc0 (linux64 - "Ubuntu 24.04.4 LTS")
Copyright (c) 2026, Gurobi Optimization, LLC

Warning: Duplicate section found (read 'binary') - Is a variable name equal to an LP file format keyword?
Warning: Duplicate section found (read 'binary') - Is a variable name equal to an LP file format keyword?
Warning: Duplicate section found (read 'binary') - Is a variable name equal to an LP file format keyword?
Warning: Duplicate section found (read 'binary') - Is a variable name equal to an LP file format keyword?
Warning: Duplicate section found (read 'binary') - Is a variable name equal to an LP file format keyword?
Warning: Duplicate section found (read 'binary') - Is a variable name equal to an LP file format keyword?
Warning: Duplicate section found (read 'binary') - Is a variable name equal to an LP file format keyword?
Warning: Duplicate section found (read 'binary') - Is a variable name equal to an LP file format keyword?
Warning: Duplicate section found (read 'binary') - Is a variable name equal to an LP file format keyword?
Warning: Duplicate section found (read 'binary') - Is a variable name equal to an LP file format keyword?
Warning: Further warnings of this type will be omitted.
Read LP format model from file /root/bgw/data/uploads/2026_03_24_00_36_06_set_prova_set_prova_set_s000_g002_max.lp
Reading time = 0.00 seconds
: 603 rows, 109 columns, 1783 nonzeros

Using Gurobi shared library /opt/gurobi1301/linux64/lib/libgurobi.so.13.0.1

CPU model: AMD EPYC-Genoa Processor, instruction set [SSE2|AVX|AVX2|AVX512]
Thread count: 16 physical cores, 16 logical processors, using up to 16 threads

Academic license 2792458 - for non-commercial use only - registered to an___@studenti.unipg.it
Optimize a model with 603 rows, 109 columns and 1783 nonzeros (Max)
Model fingerprint: 0xf5b66e11
Model has 7 linear objective coefficients
Variable types: 19 continuous, 90 integer (90 binary)
Coefficient statistics:
  Matrix range     [1e+00, 1e+01]
  Objective range  [1e+00, 1e+00]
  Bounds range     [1e+00, 1e+00]
  RHS range        [1e+00, 1e+01]

Found heuristic solution: objective 7.0000000
Presolve removed 137 rows and 27 columns
Presolve time: 0.00s
Presolved: 466 rows, 82 columns, 1452 nonzeros
Variable types: 0 continuous, 82 integer (76 binary)
Found heuristic solution: objective 11.0000000

Root relaxation: objective 3.100000e+01, 46 iterations, 0.00 seconds (0.00 work units)

    Nodes    |    Current Node    |     Objective Bounds      |     Work
 Expl Unexpl |  Obj  Depth IntInf | Incumbent    BestBd   Gap | It/Node Time

     0     0   31.00000    0   19   11.00000   31.00000   182%     -    0s
H    0     0                      18.0000000   31.00000  72.2%     -    0s
H    0     0                      19.0000000   31.00000  63.2%     -    0s
     0     0   31.00000    0   19   19.00000   31.00000  63.2%     -    0s
     0     0   31.00000    0   19   19.00000   31.00000  63.2%     -    0s
     0     0   31.00000    0   18   19.00000   31.00000  63.2%     -    0s
     0     0   31.00000    0   17   19.00000   31.00000  63.2%     -    0s
     0     0   31.00000    0   17   19.00000   31.00000  63.2%     -    0s
     0     0   31.00000    0   19   19.00000   31.00000  63.2%     -    0s
     0     0   31.00000    0   18   19.00000   31.00000  63.2%     -    0s
     0     0   30.50000    0   17   19.00000   30.50000  60.5%     -    0s
     0     0   30.50000    0   17   19.00000   30.50000  60.5%     -    0s
     0     0   30.00000    0   19   19.00000   30.00000  57.9%     -    0s
     0     0   30.00000    0   19   19.00000   30.00000  57.9%     -    0s
     0     0   30.00000    0   20   19.00000   30.00000  57.9%     -    0s
     0     0   30.00000    0   14   19.00000   30.00000  57.9%     -    0s
     0     0   29.93333    0   17   19.00000   29.93333  57.5%     -    0s
     0     0   29.93333    0   14   19.00000   29.93333  57.5%     -    0s
     0     0   29.50000    0   14   19.00000   29.50000  55.3%     -    0s
     0     0   29.50000    0   14   19.00000   29.50000  55.3%     -    0s
     0     2   29.50000    0   14   19.00000   29.50000  55.3%     -    0s

Cutting planes:
  Gomory: 1
  MIR: 1
  Inf proof: 2

Explored 378 nodes (6092 simplex iterations) in 0.19 seconds (0.11 work units)
Thread count was 16 (of 16 available processors)

Solution count 4: 19 18 11 7 

Optimal solution found (tolerance 1.00e-04)
Best objective 1.900000000000e+01, best bound 1.900000000000e+01, gap 0.0000%

Wrote result file '/root/bgw/data/results/2026_03_24_00_36_06_set_prova_set_prova_set_s000_g002_max.sol'

